1000 100
5 367
26 440
13 142
286 292
361 494
347 118
61 83
346 340
279 116
433 417
498 183
399 171
400 413
497 15
108 487
19 294
423 238
259 212
249 310
146 344
7 476
39 403
209 439
488 304
476 382
180 360
131 282
236 331
3 275
112 262
278 228
479 429
259 419
101 500
14 232
200 278
2 465
69 332
403 287
468 466
452 331
242 270
24 204
189 430
225 65
148 179
63 327
439 432
260 23
445 232
491 264
395 59
352 440
358 342
66 154
208 62
143 186
485 175
37 184
459 320
159 478
240 438
180 403
495 179
97 88
169 116
321 26
443 101
74 10
194 4
105 169
241 330
164 480
456 361
144 375
376 399
455 488
483 395
234 317
483 286
297 214
197 228
195 311
310 52
30 82
10 7
429 457
13 5
455 441
180 109
226 60
5 24
428 356
383 154
78 136
192 287
138 288
262 334
84 367
53 352
